NAME : X-n599-k92
COMMENT : "Generated by Uchoa, Pecin, Pessoa, Poggi, Subramanian, and Vidal (2013)"
TYPE : CVRP
DIMENSION : 599
EDGE_WEIGHT_TYPE : EUC_2D
CAPACITY : 487
NODE_COORD_SECTION
1 284 167
2 6 711
3 874 746
4 483 894
5 733 189
6 336 29
7 488 684
8 825 903
9 98 412
10 206 306
11 497 641
12 499 745
13 481 40
14 500 390
15 851 268
16 51 278
17 805 796
18 554 771
19 576 984
20 734 251
21 325 414
22 658 81
23 279 467
24 1000 804
25 124 148
26 554 594
27 645 168
28 4 965
29 614 267
30 939 719
31 935 800
32 109 154
33 31 554
34 960 512
35 489 840
36 377 684
37 945 808
38 720 165
39 226 34
40 73 255
41 748 344
42 774 514
43 143 893
44 168 461
45 164 493
46 631 533
47 815 191
48 833 284
49 746 100
50 252 839
51 894 472
52 944 597
53 371 28
54 552 186
55 610 541
56 578 665
57 749 655
58 898 974
59 274 972
60 520 642
61 914 373
62 610 738
63 773 602
64 752 74
65 729 90
66 464 658
67 70 36
68 964 397
69 388 732
70 185 51
71 712 144
72 45 437
73 910 738
74 956 879
75 318 560
76 592 913
77 642 564
78 907 240
79 88 186
80 399 931
81 763 180
82 626 876
83 302 689
84 970 490
85 775 574
86 653 667
87 813 999
88 5 980
89 10 249
90 980 136
91 557 816
92 915 680
93 131 722
94 553 946
95 45 101
96 306 260
97 627 26
98 771 398
99 869 585
100 493 282
101 312 212
102 985 939
103 194 262
104 992 698
105 834 844
106 1 651
107 271 893
108 20 349
109 163 503
110 579 761
111 923 502
112 2 469
113 103 284
114 928 132
115 51 883
116 63 181
117 784 300
118 212 774
119 138 90
120 532 999
121 160 179
122 51 330
123 743 949
124 439 328
125 519 563
126 15 591
127 2 546
128 20 964
129 975 611
130 128 984
131 131 737
132 214 591
133 969 497
134 367 77
135 925 640
136 160 288
137 771 912
138 162 80
139 252 140
140 704 21
141 980 560
142 896 344
143 566 389
144 892 149
145 20 663
146 405 859
147 391 304
148 475 920
149 649 458
150 480 756
151 835 65
152 407 973
153 447 697
154 363 808
155 82 623
156 344 837
157 325 148
158 249 926
159 894 188
160 146 433
161 22 95
162 789 664
163 110 741
164 378 573
165 606 838
166 583 717
167 151 525
168 803 457
169 971 191
170 687 417
171 512 553
172 893 179
173 339 985
174 108 241
175 268 98
176 317 221
177 763 566
178 310 305
179 572 203
180 454 957
181 621 295
182 706 865
183 154 175
184 881 149
185 122 50
186 163 817
187 825 86
188 879 455
189 801 726
190 504 198
191 970 276
192 934 920
193 21 730
194 0 689
195 55 848
196 234 477
197 475 485
198 881 106
199 125 170
200 169 455
201 683 933
202 825 911
203 300 380
204 836 71
205 492 28
206 466 702
207 280 878
208 529 935
209 580 243
210 892 721
211 844 830
212 249 541
213 950 63
214 139 349
215 345 668
216 202 781
217 435 492
218 703 608
219 220 590
220 293 435
221 195 547
222 28 660
223 481 59
224 632 672
225 220 763
226 13 308
227 216 306
228 32 554
229 826 687
230 512 498
231 96 824
232 510 533
233 158 386
234 829 812
235 867 873
236 784 951
237 690 940
238 220 977
239 852 979
240 776 539
241 723 945
242 399 357
243 456 434
244 113 924
245 885 12
246 30 459
247 659 795
248 623 116
249 635 270
250 232 431
251 520 384
252 838 24
253 758 862
254 73 559
255 676 791
256 492 942
257 869 445
258 79 773
259 843 368
260 23 54
261 908 695
262 727 140
263 314 736
264 73 940
265 646 802
266 946 370
267 461 280
268 987 63
269 181 970
270 619 314
271 233 651
272 310 285
273 440 921
274 84 462
275 659 265
276 294 353
277 676 392
278 631 446
279 344 805
280 392 406
281 973 635
282 0 537
283 973 718
284 762 474
285 741 920
286 889 147
287 806 717
288 762 978
289 217 27
290 446 332
291 185 282
292 456 227
293 972 759
294 774 283
295 29 157
296 110 925
297 396 428
298 427 836
299 334 853
300 695 663
301 216 367
302 914 966
303 675 144
304 380 424
305 983 421
306 196 287
307 703 575
308 42 81
309 574 452
310 188 558
311 651 950
312 761 901
313 699 838
314 257 174
315 828 842
316 316 34
317 391 970
318 725 674
319 120 90
320 694 30
321 517 759
322 365 235
323 494 299
324 582 323
325 266 128
326 905 177
327 491 337
328 872 740
329 660 518
330 523 459
331 735 841
332 157 997
333 45 383
334 354 180
335 425 710
336 236 203
337 601 696
338 985 82
339 838 611
340 608 357
341 829 443
342 954 46
343 831 477
344 977 848
345 61 126
346 254 595
347 337 5
348 750 956
349 962 264
350 832 389
351 870 159
352 537 349
353 15 890
354 85 734
355 17 668
356 650 591
357 42 53
358 367 72
359 951 526
360 607 633
361 686 319
362 483 489
363 915 493
364 625 316
365 920 267
366 189 208
367 735 596
368 128 875
369 544 996
370 700 96
371 314 626
372 240 431
373 689 615
374 177 160
375 132 639
376 292 500
377 313 752
378 240 47
379 750 460
380 314 486
381 701 50
382 459 543
383 303 175
384 541 185
385 966 670
386 858 77
387 7 640
388 911 283
389 550 784
390 414 218
391 657 974
392 565 856
393 725 81
394 557 176
395 122 60
396 347 872
397 86 270
398 671 300
399 855 53
400 306 688
401 62 569
402 592 581
403 380 868
404 191 553
405 406 216
406 108 151
407 806 685
408 956 106
409 702 965
410 465 782
411 315 454
412 257 878
413 859 581
414 857 385
415 671 387
416 956 788
417 615 350
418 932 515
419 713 464
420 614 647
421 39 570
422 293 866
423 861 930
424 997 658
425 25 56
426 996 771
427 609 794
428 575 912
429 798 641
430 47 705
431 33 332
432 20 892
433 406 668
434 911 786
435 287 587
436 709 973
437 230 500
438 999 267
439 101 865
440 218 917
441 478 14
442 179 48
443 284 237
444 832 379
445 685 104
446 275 165
447 224 45
448 31 407
449 215 179
450 558 298
451 385 391
452 8 935
453 760 662
454 255 263
455 811 645
456 152 288
457 840 493
458 48 522
459 624 942
460 557 687
461 302 629
462 570 674
463 523 682
464 521 738
465 825 540
466 906 960
467 286 33
468 43 940
469 410 713
470 96 760
471 269 427
472 329 180
473 893 150
474 634 97
475 907 61
476 285 241
477 431 871
478 964 134
479 211 400
480 19 292
481 15 407
482 986 675
483 272 671
484 346 394
485 963 309
486 551 663
487 759 368
488 281 999
489 416 642
490 966 681
491 416 755
492 545 448
493 852 486
494 487 456
495 571 354
496 57 476
497 569 437
498 828 352
499 625 458
500 446 705
501 197 107
502 652 878
503 559 625
504 539 149
505 194 624
506 76 178
507 433 175
508 869 714
509 345 130
510 172 542
511 883 701
512 167 695
513 265 285
514 465 898
515 625 552
516 876 277
517 896 763
518 429 312
519 953 351
520 634 37
521 5 753
522 998 497
523 237 482
524 787 445
525 695 461
526 50 301
527 429 596
528 881 355
529 888 609
530 927 216
531 555 110
532 166 518
533 840 933
534 916 873
535 221 705
536 97 71
537 634 685
538 759 542
539 111 830
540 832 46
541 680 133
542 152 639
543 489 197
544 728 864
545 216 62
546 246 214
547 694 287
548 849 833
549 811 272
550 141 463
551 645 843
552 461 656
553 858 75
554 393 220
555 337 375
556 534 927
557 81 805
558 509 460
559 346 660
560 239 626
561 32 304
562 453 799
563 325 239
564 454 629
565 589 438
566 137 993
567 505 920
568 254 198
569 461 582
570 931 438
571 194 274
572 425 490
573 682 129
574 152 673
575 280 141
576 949 48
577 116 990
578 579 876
579 729 124
580 513 311
581 958 86
582 936 365
583 83 93
584 10 103
585 223 860
586 402 101
587 965 683
588 35 143
589 262 766
590 113 182
591 573 796
592 384 538
593 251 775
594 655 351
595 186 96
596 558 287
597 695 874
598 567 488
599 661 518
PICKUP_AND_DELIVERY_SECTION
1 0 0 1000000000 0 0 0
2 0 0 1000000000 0 0 63
3 0 0 1000000000 0 89 0
4 0 0 1000000000 0 0 97
5 0 0 1000000000 0 78 0
6 0 0 1000000000 0 0 92
7 0 0 1000000000 0 55 0
8 0 0 1000000000 0 0 97
9 0 0 1000000000 0 88 0
10 0 0 1000000000 0 0 95
11 0 0 1000000000 0 64 0
12 0 0 1000000000 0 0 80
13 0 0 1000000000 0 68 0
14 0 0 1000000000 0 0 71
15 0 0 1000000000 0 95 0
16 0 0 1000000000 0 0 75
17 0 0 1000000000 0 89 0
18 0 0 1000000000 0 0 54
19 0 0 1000000000 0 75 0
20 0 0 1000000000 0 0 61
21 0 0 1000000000 0 66 0
22 0 0 1000000000 0 0 86
23 0 0 1000000000 0 56 0
24 0 0 1000000000 0 0 99
25 0 0 1000000000 0 65 0
26 0 0 1000000000 0 0 56
27 0 0 1000000000 0 99 0
28 0 0 1000000000 0 0 79
29 0 0 1000000000 0 73 0
30 0 0 1000000000 0 0 53
31 0 0 1000000000 0 63 0
32 0 0 1000000000 0 0 76
33 0 0 1000000000 0 67 0
34 0 0 1000000000 0 0 77
35 0 0 1000000000 0 82 0
36 0 0 1000000000 0 0 67
37 0 0 1000000000 0 68 0
38 0 0 1000000000 0 0 64
39 0 0 1000000000 0 69 0
40 0 0 1000000000 0 0 68
41 0 0 1000000000 0 83 0
42 0 0 1000000000 0 0 77
43 0 0 1000000000 0 67 0
44 0 0 1000000000 0 0 74
45 0 0 1000000000 0 80 0
46 0 0 1000000000 0 0 55
47 0 0 1000000000 0 86 0
48 0 0 1000000000 0 0 68
49 0 0 1000000000 0 62 0
50 0 0 1000000000 0 0 78
51 0 0 1000000000 0 67 0
52 0 0 1000000000 0 0 90
53 0 0 1000000000 0 63 0
54 0 0 1000000000 0 0 90
55 0 0 1000000000 0 56 0
56 0 0 1000000000 0 0 69
57 0 0 1000000000 0 97 0
58 0 0 1000000000 0 0 87
59 0 0 1000000000 0 87 0
60 0 0 1000000000 0 0 70
61 0 0 1000000000 0 75 0
62 0 0 1000000000 0 0 73
63 0 0 1000000000 0 81 0
64 0 0 1000000000 0 0 97
65 0 0 1000000000 0 88 0
66 0 0 1000000000 0 0 68
67 0 0 1000000000 0 53 0
68 0 0 1000000000 0 0 64
69 0 0 1000000000 0 95 0
70 0 0 1000000000 0 0 87
71 0 0 1000000000 0 92 0
72 0 0 1000000000 0 0 79
73 0 0 1000000000 0 77 0
74 0 0 1000000000 0 0 75
75 0 0 1000000000 0 86 0
76 0 0 1000000000 0 0 85
77 0 0 1000000000 0 55 0
78 0 0 1000000000 0 0 60
79 0 0 1000000000 0 78 0
80 0 0 1000000000 0 0 71
81 0 0 1000000000 0 68 0
82 0 0 1000000000 0 0 69
83 0 0 1000000000 0 73 0
84 0 0 1000000000 0 0 89
85 0 0 1000000000 0 64 0
86 0 0 1000000000 0 0 95
87 0 0 1000000000 0 61 0
88 0 0 1000000000 0 0 85
89 0 0 1000000000 0 55 0
90 0 0 1000000000 0 0 96
91 0 0 1000000000 0 51 0
92 0 0 1000000000 0 0 98
93 0 0 1000000000 0 82 0
94 0 0 1000000000 0 0 89
95 0 0 1000000000 0 71 0
96 0 0 1000000000 0 0 60
97 0 0 1000000000 0 94 0
98 0 0 1000000000 0 0 64
99 0 0 1000000000 0 74 0
100 0 0 1000000000 0 0 75
101 0 0 1000000000 0 91 0
102 0 0 1000000000 0 0 63
103 0 0 1000000000 0 67 0
104 0 0 1000000000 0 0 91
105 0 0 1000000000 0 77 0
106 0 0 1000000000 0 0 65
107 0 0 1000000000 0 89 0
108 0 0 1000000000 0 0 50
109 0 0 1000000000 0 77 0
110 0 0 1000000000 0 0 88
111 0 0 1000000000 0 66 0
112 0 0 1000000000 0 0 98
113 0 0 1000000000 0 64 0
114 0 0 1000000000 0 0 51
115 0 0 1000000000 0 64 0
116 0 0 1000000000 0 0 96
117 0 0 1000000000 0 51 0
118 0 0 1000000000 0 0 54
119 0 0 1000000000 0 68 0
120 0 0 1000000000 0 0 59
121 0 0 1000000000 0 100 0
122 0 0 1000000000 0 0 61
123 0 0 1000000000 0 62 0
124 0 0 1000000000 0 0 99
125 0 0 1000000000 0 77 0
126 0 0 1000000000 0 0 52
127 0 0 1000000000 0 81 0
128 0 0 1000000000 0 0 80
129 0 0 1000000000 0 94 0
130 0 0 1000000000 0 0 91
131 0 0 1000000000 0 65 0
132 0 0 1000000000 0 0 89
133 0 0 1000000000 0 90 0
134 0 0 1000000000 0 0 94
135 0 0 1000000000 0 91 0
136 0 0 1000000000 0 0 68
137 0 0 1000000000 0 93 0
138 0 0 1000000000 0 0 74
139 0 0 1000000000 0 100 0
140 0 0 1000000000 0 0 60
141 0 0 1000000000 0 79 0
142 0 0 1000000000 0 0 89
143 0 0 1000000000 0 96 0
144 0 0 1000000000 0 0 63
145 0 0 1000000000 0 57 0
146 0 0 1000000000 0 0 53
147 0 0 1000000000 0 60 0
148 0 0 1000000000 0 0 51
149 0 0 1000000000 0 58 0
150 0 0 1000000000 0 0 69
151 0 0 1000000000 0 71 0
152 0 0 1000000000 0 0 56
153 0 0 1000000000 0 88 0
154 0 0 1000000000 0 0 58
155 0 0 1000000000 0 89 0
156 0 0 1000000000 0 0 64
157 0 0 1000000000 0 94 0
158 0 0 1000000000 0 0 66
159 0 0 1000000000 0 53 0
160 0 0 1000000000 0 0 69
161 0 0 1000000000 0 95 0
162 0 0 1000000000 0 0 75
163 0 0 1000000000 0 96 0
164 0 0 1000000000 0 0 95
165 0 0 1000000000 0 74 0
166 0 0 1000000000 0 0 81
167 0 0 1000000000 0 59 0
168 0 0 1000000000 0 0 76
169 0 0 1000000000 0 80 0
170 0 0 1000000000 0 0 79
171 0 0 1000000000 0 86 0
172 0 0 1000000000 0 0 53
173 0 0 1000000000 0 93 0
174 0 0 1000000000 0 0 65
175 0 0 1000000000 0 61 0
176 0 0 1000000000 0 0 81
177 0 0 1000000000 0 56 0
178 0 0 1000000000 0 0 51
179 0 0 1000000000 0 81 0
180 0 0 1000000000 0 0 93
181 0 0 1000000000 0 66 0
182 0 0 1000000000 0 0 91
183 0 0 1000000000 0 66 0
184 0 0 1000000000 0 0 91
185 0 0 1000000000 0 77 0
186 0 0 1000000000 0 0 64
187 0 0 1000000000 0 52 0
188 0 0 1000000000 0 0 83
189 0 0 1000000000 0 63 0
190 0 0 1000000000 0 0 80
191 0 0 1000000000 0 87 0
192 0 0 1000000000 0 0 93
193 0 0 1000000000 0 55 0
194 0 0 1000000000 0 0 94
195 0 0 1000000000 0 88 0
196 0 0 1000000000 0 0 82
197 0 0 1000000000 0 77 0
198 0 0 1000000000 0 0 75
199 0 0 1000000000 0 67 0
200 0 0 1000000000 0 0 78
201 0 0 1000000000 0 98 0
202 0 0 1000000000 0 0 54
203 0 0 1000000000 0 68 0
204 0 0 1000000000 0 0 69
205 0 0 1000000000 0 52 0
206 0 0 1000000000 0 0 68
207 0 0 1000000000 0 59 0
208 0 0 1000000000 0 0 64
209 0 0 1000000000 0 69 0
210 0 0 1000000000 0 0 72
211 0 0 1000000000 0 98 0
212 0 0 1000000000 0 0 61
213 0 0 1000000000 0 59 0
214 0 0 1000000000 0 0 71
215 0 0 1000000000 0 99 0
216 0 0 1000000000 0 0 76
217 0 0 1000000000 0 75 0
218 0 0 1000000000 0 0 54
219 0 0 1000000000 0 73 0
220 0 0 1000000000 0 0 93
221 0 0 1000000000 0 70 0
222 0 0 1000000000 0 0 98
223 0 0 1000000000 0 74 0
224 0 0 1000000000 0 0 65
225 0 0 1000000000 0 84 0
226 0 0 1000000000 0 0 72
227 0 0 1000000000 0 59 0
228 0 0 1000000000 0 0 91
229 0 0 1000000000 0 81 0
230 0 0 1000000000 0 0 79
231 0 0 1000000000 0 59 0
232 0 0 1000000000 0 0 88
233 0 0 1000000000 0 53 0
234 0 0 1000000000 0 0 80
235 0 0 1000000000 0 68 0
236 0 0 1000000000 0 0 97
237 0 0 1000000000 0 90 0
238 0 0 1000000000 0 0 100
239 0 0 1000000000 0 86 0
240 0 0 1000000000 0 0 79
241 0 0 1000000000 0 52 0
242 0 0 1000000000 0 0 92
243 0 0 1000000000 0 80 0
244 0 0 1000000000 0 0 94
245 0 0 1000000000 0 70 0
246 0 0 1000000000 0 0 61
247 0 0 1000000000 0 63 0
248 0 0 1000000000 0 0 77
249 0 0 1000000000 0 90 0
250 0 0 1000000000 0 0 57
251 0 0 1000000000 0 70 0
252 0 0 1000000000 0 0 84
253 0 0 1000000000 0 97 0
254 0 0 1000000000 0 0 68
255 0 0 1000000000 0 61 0
256 0 0 1000000000 0 0 50
257 0 0 1000000000 0 88 0
258 0 0 1000000000 0 0 89
259 0 0 1000000000 0 82 0
260 0 0 1000000000 0 0 58
261 0 0 1000000000 0 68 0
262 0 0 1000000000 0 0 94
263 0 0 1000000000 0 83 0
264 0 0 1000000000 0 0 70
265 0 0 1000000000 0 54 0
266 0 0 1000000000 0 0 80
267 0 0 1000000000 0 55 0
268 0 0 1000000000 0 0 74
269 0 0 1000000000 0 88 0
270 0 0 1000000000 0 0 60
271 0 0 1000000000 0 84 0
272 0 0 1000000000 0 0 88
273 0 0 1000000000 0 65 0
274 0 0 1000000000 0 0 86
275 0 0 1000000000 0 99 0
276 0 0 1000000000 0 0 81
277 0 0 1000000000 0 81 0
278 0 0 1000000000 0 0 63
279 0 0 1000000000 0 55 0
280 0 0 1000000000 0 0 57
281 0 0 1000000000 0 80 0
282 0 0 1000000000 0 0 99
283 0 0 1000000000 0 65 0
284 0 0 1000000000 0 0 96
285 0 0 1000000000 0 75 0
286 0 0 1000000000 0 0 96
287 0 0 1000000000 0 95 0
288 0 0 1000000000 0 0 61
289 0 0 1000000000 0 74 0
290 0 0 1000000000 0 0 68
291 0 0 1000000000 0 76 0
292 0 0 1000000000 0 0 74
293 0 0 1000000000 0 73 0
294 0 0 1000000000 0 0 71
295 0 0 1000000000 0 81 0
296 0 0 1000000000 0 0 89
297 0 0 1000000000 0 60 0
298 0 0 1000000000 0 0 81
299 0 0 1000000000 0 50 0
300 0 0 1000000000 0 0 92
301 0 0 1000000000 0 80 0
302 0 0 1000000000 0 0 53
303 0 0 1000000000 0 100 0
304 0 0 1000000000 0 0 55
305 0 0 1000000000 0 64 0
306 0 0 1000000000 0 0 83
307 0 0 1000000000 0 74 0
308 0 0 1000000000 0 0 61
309 0 0 1000000000 0 75 0
310 0 0 1000000000 0 0 79
311 0 0 1000000000 0 70 0
312 0 0 1000000000 0 0 80
313 0 0 1000000000 0 52 0
314 0 0 1000000000 0 0 54
315 0 0 1000000000 0 77 0
316 0 0 1000000000 0 0 66
317 0 0 1000000000 0 89 0
318 0 0 1000000000 0 0 79
319 0 0 1000000000 0 68 0
320 0 0 1000000000 0 0 63
321 0 0 1000000000 0 50 0
322 0 0 1000000000 0 0 89
323 0 0 1000000000 0 62 0
324 0 0 1000000000 0 0 78
325 0 0 1000000000 0 77 0
326 0 0 1000000000 0 0 61
327 0 0 1000000000 0 100 0
328 0 0 1000000000 0 0 58
329 0 0 1000000000 0 77 0
330 0 0 1000000000 0 0 60
331 0 0 1000000000 0 73 0
332 0 0 1000000000 0 0 88
333 0 0 1000000000 0 99 0
334 0 0 1000000000 0 0 79
335 0 0 1000000000 0 79 0
336 0 0 1000000000 0 0 96
337 0 0 1000000000 0 58 0
338 0 0 1000000000 0 0 57
339 0 0 1000000000 0 76 0
340 0 0 1000000000 0 0 74
341 0 0 1000000000 0 85 0
342 0 0 1000000000 0 0 58
343 0 0 1000000000 0 54 0
344 0 0 1000000000 0 0 61
345 0 0 1000000000 0 65 0
346 0 0 1000000000 0 0 52
347 0 0 1000000000 0 78 0
348 0 0 1000000000 0 0 85
349 0 0 1000000000 0 70 0
350 0 0 1000000000 0 0 72
351 0 0 1000000000 0 77 0
352 0 0 1000000000 0 0 70
353 0 0 1000000000 0 76 0
354 0 0 1000000000 0 0 75
355 0 0 1000000000 0 60 0
356 0 0 1000000000 0 0 59
357 0 0 1000000000 0 63 0
358 0 0 1000000000 0 0 68
359 0 0 1000000000 0 84 0
360 0 0 1000000000 0 0 92
361 0 0 1000000000 0 62 0
362 0 0 1000000000 0 0 95
363 0 0 1000000000 0 95 0
364 0 0 1000000000 0 0 51
365 0 0 1000000000 0 76 0
366 0 0 1000000000 0 0 90
367 0 0 1000000000 0 67 0
368 0 0 1000000000 0 0 72
369 0 0 1000000000 0 55 0
370 0 0 1000000000 0 0 88
371 0 0 1000000000 0 74 0
372 0 0 1000000000 0 0 57
373 0 0 1000000000 0 93 0
374 0 0 1000000000 0 0 54
375 0 0 1000000000 0 51 0
376 0 0 1000000000 0 0 63
377 0 0 1000000000 0 76 0
378 0 0 1000000000 0 0 67
379 0 0 1000000000 0 87 0
380 0 0 1000000000 0 0 91
381 0 0 1000000000 0 51 0
382 0 0 1000000000 0 0 76
383 0 0 1000000000 0 68 0
384 0 0 1000000000 0 0 96
385 0 0 1000000000 0 58 0
386 0 0 1000000000 0 0 55
387 0 0 1000000000 0 90 0
388 0 0 1000000000 0 0 55
389 0 0 1000000000 0 65 0
390 0 0 1000000000 0 0 92
391 0 0 1000000000 0 81 0
392 0 0 1000000000 0 0 53
393 0 0 1000000000 0 75 0
394 0 0 1000000000 0 0 60
395 0 0 1000000000 0 84 0
396 0 0 1000000000 0 0 71
397 0 0 1000000000 0 96 0
398 0 0 1000000000 0 0 87
399 0 0 1000000000 0 59 0
400 0 0 1000000000 0 0 100
401 0 0 1000000000 0 62 0
402 0 0 1000000000 0 0 50
403 0 0 1000000000 0 91 0
404 0 0 1000000000 0 0 51
405 0 0 1000000000 0 83 0
406 0 0 1000000000 0 0 68
407 0 0 1000000000 0 58 0
408 0 0 1000000000 0 0 50
409 0 0 1000000000 0 93 0
410 0 0 1000000000 0 0 78
411 0 0 1000000000 0 75 0
412 0 0 1000000000 0 0 73
413 0 0 1000000000 0 67 0
414 0 0 1000000000 0 0 91
415 0 0 1000000000 0 86 0
416 0 0 1000000000 0 0 53
417 0 0 1000000000 0 54 0
418 0 0 1000000000 0 0 56
419 0 0 1000000000 0 72 0
420 0 0 1000000000 0 0 56
421 0 0 1000000000 0 64 0
422 0 0 1000000000 0 0 84
423 0 0 1000000000 0 84 0
424 0 0 1000000000 0 0 57
425 0 0 1000000000 0 73 0
426 0 0 1000000000 0 0 84
427 0 0 1000000000 0 62 0
428 0 0 1000000000 0 0 88
429 0 0 1000000000 0 90 0
430 0 0 1000000000 0 0 71
431 0 0 1000000000 0 50 0
432 0 0 1000000000 0 0 92
433 0 0 1000000000 0 87 0
434 0 0 1000000000 0 0 70
435 0 0 1000000000 0 95 0
436 0 0 1000000000 0 0 95
437 0 0 1000000000 0 88 0
438 0 0 1000000000 0 0 51
439 0 0 1000000000 0 69 0
440 0 0 1000000000 0 0 88
441 0 0 1000000000 0 73 0
442 0 0 1000000000 0 0 59
443 0 0 1000000000 0 62 0
444 0 0 1000000000 0 0 71
445 0 0 1000000000 0 100 0
446 0 0 1000000000 0 0 70
447 0 0 1000000000 0 74 0
448 0 0 1000000000 0 0 58
449 0 0 1000000000 0 73 0
450 0 0 1000000000 0 0 53
451 0 0 1000000000 0 78 0
452 0 0 1000000000 0 0 51
453 0 0 1000000000 0 95 0
454 0 0 1000000000 0 0 96
455 0 0 1000000000 0 88 0
456 0 0 1000000000 0 0 69
457 0 0 1000000000 0 63 0
458 0 0 1000000000 0 0 93
459 0 0 1000000000 0 50 0
460 0 0 1000000000 0 0 90
461 0 0 1000000000 0 93 0
462 0 0 1000000000 0 0 95
463 0 0 1000000000 0 87 0
464 0 0 1000000000 0 0 62
465 0 0 1000000000 0 88 0
466 0 0 1000000000 0 0 76
467 0 0 1000000000 0 56 0
468 0 0 1000000000 0 0 76
469 0 0 1000000000 0 89 0
470 0 0 1000000000 0 0 55
471 0 0 1000000000 0 79 0
472 0 0 1000000000 0 0 89
473 0 0 1000000000 0 76 0
474 0 0 1000000000 0 0 88
475 0 0 1000000000 0 68 0
476 0 0 1000000000 0 0 73
477 0 0 1000000000 0 80 0
478 0 0 1000000000 0 0 64
479 0 0 1000000000 0 81 0
480 0 0 1000000000 0 0 74
481 0 0 1000000000 0 70 0
482 0 0 1000000000 0 0 73
483 0 0 1000000000 0 77 0
484 0 0 1000000000 0 0 80
485 0 0 1000000000 0 88 0
486 0 0 1000000000 0 0 80
487 0 0 1000000000 0 91 0
488 0 0 1000000000 0 0 50
489 0 0 1000000000 0 54 0
490 0 0 1000000000 0 0 61
491 0 0 1000000000 0 67 0
492 0 0 1000000000 0 0 64
493 0 0 1000000000 0 86 0
494 0 0 1000000000 0 0 59
495 0 0 1000000000 0 62 0
496 0 0 1000000000 0 0 77
497 0 0 1000000000 0 72 0
498 0 0 1000000000 0 0 93
499 0 0 1000000000 0 97 0
500 0 0 1000000000 0 0 86
501 0 0 1000000000 0 71 0
502 0 0 1000000000 0 0 82
503 0 0 1000000000 0 84 0
504 0 0 1000000000 0 0 67
505 0 0 1000000000 0 57 0
506 0 0 1000000000 0 0 91
507 0 0 1000000000 0 64 0
508 0 0 1000000000 0 0 69
509 0 0 1000000000 0 94 0
510 0 0 1000000000 0 0 75
511 0 0 1000000000 0 100 0
512 0 0 1000000000 0 0 65
513 0 0 1000000000 0 56 0
514 0 0 1000000000 0 0 93
515 0 0 1000000000 0 89 0
516 0 0 1000000000 0 0 80
517 0 0 1000000000 0 78 0
518 0 0 1000000000 0 0 87
519 0 0 1000000000 0 85 0
520 0 0 1000000000 0 0 67
521 0 0 1000000000 0 53 0
522 0 0 1000000000 0 0 68
523 0 0 1000000000 0 85 0
524 0 0 1000000000 0 0 52
525 0 0 1000000000 0 51 0
526 0 0 1000000000 0 0 66
527 0 0 1000000000 0 73 0
528 0 0 1000000000 0 0 98
529 0 0 1000000000 0 99 0
530 0 0 1000000000 0 0 97
531 0 0 1000000000 0 86 0
532 0 0 1000000000 0 0 61
533 0 0 1000000000 0 65 0
534 0 0 1000000000 0 0 83
535 0 0 1000000000 0 80 0
536 0 0 1000000000 0 0 88
537 0 0 1000000000 0 76 0
538 0 0 1000000000 0 0 96
539 0 0 1000000000 0 70 0
540 0 0 1000000000 0 0 97
541 0 0 1000000000 0 71 0
542 0 0 1000000000 0 0 53
543 0 0 1000000000 0 76 0
544 0 0 1000000000 0 0 95
545 0 0 1000000000 0 87 0
546 0 0 1000000000 0 0 89
547 0 0 1000000000 0 85 0
548 0 0 1000000000 0 0 92
549 0 0 1000000000 0 98 0
550 0 0 1000000000 0 0 69
551 0 0 1000000000 0 67 0
552 0 0 1000000000 0 0 82
553 0 0 1000000000 0 69 0
554 0 0 1000000000 0 0 89
555 0 0 1000000000 0 72 0
556 0 0 1000000000 0 0 94
557 0 0 1000000000 0 74 0
558 0 0 1000000000 0 0 67
559 0 0 1000000000 0 64 0
560 0 0 1000000000 0 0 90
561 0 0 1000000000 0 74 0
562 0 0 1000000000 0 0 66
563 0 0 1000000000 0 94 0
564 0 0 1000000000 0 0 93
565 0 0 1000000000 0 55 0
566 0 0 1000000000 0 0 59
567 0 0 1000000000 0 60 0
568 0 0 1000000000 0 0 64
569 0 0 1000000000 0 90 0
570 0 0 1000000000 0 0 77
571 0 0 1000000000 0 56 0
572 0 0 1000000000 0 0 97
573 0 0 1000000000 0 97 0
574 0 0 1000000000 0 0 52
575 0 0 1000000000 0 56 0
576 0 0 1000000000 0 0 78
577 0 0 1000000000 0 71 0
578 0 0 1000000000 0 0 88
579 0 0 1000000000 0 85 0
580 0 0 1000000000 0 0 52
581 0 0 1000000000 0 79 0
582 0 0 1000000000 0 0 78
583 0 0 1000000000 0 84 0
584 0 0 1000000000 0 0 60
585 0 0 1000000000 0 58 0
586 0 0 1000000000 0 0 100
587 0 0 1000000000 0 100 0
588 0 0 1000000000 0 0 75
589 0 0 1000000000 0 86 0
590 0 0 1000000000 0 0 64
591 0 0 1000000000 0 82 0
592 0 0 1000000000 0 0 67
593 0 0 1000000000 0 56 0
594 0 0 1000000000 0 0 76
595 0 0 1000000000 0 91 0
596 0 0 1000000000 0 0 69
597 0 0 1000000000 0 74 0
598 0 0 1000000000 0 0 62
599 0 0 1000000000 0 73 0
